%%% static parameters %%%
timespan = 1;
Fact = [3];
Distr1 = [10];
Distr2 = [20];
Clients_N = [40];
Demand_W = [15];
Lt0 = [4];
Lt1 = [4];
SS_ = [0.85];
DS_D = [7];
K = [200];
MA = [500];
%%% dynamic parameters %%%
lost_ratio_sales_ret_th = 0.9746854468350706;
lost_ratio_sales_ret_w = 16;
lost_ratio_sales_dis_th = 0.8515407401797176;
lost_ratio_sales_dis_w = 35;
lost_ratio_sales_fac_th = 0.700954793884953;
lost_ratio_sales_fac_w = 97;
stock_customer_MA_mean_relative_th = 0.35823867399625886;
stock_customer_MA_mean_relative_w = 93;
stock_distributor_MA_mean_relative_th = 0.8140678683469335;
stock_distributor_MA_mean_relative_w = 22;
stock_retailer_MA_mean_relative_th = 0.20755651441498313;
stock_retailer_MA_mean_relative_w = 92;
stock_factory_MA_mean_relative_th = 0.8541186965542067;
stock_factory_MA_mean_relative_w = 45;
